&control
prefix = 'magnesia'
calculation = 'scf'
restart_mode = 'from_scratch'
wf_collect = .false.
disk_io = 'none'
tstress = .false.
tprnfor = .false.
outdir = './'
wfcdir = './'
pseudo_dir = './'
/
&system
ibrav = 0
celldm(1) = 7.93658
nat = 2000
ntyp = 2
nbnd = 4000
ecutwfc = 130
/
&electrons
electron_maxstep = 1
conv_thr = 1.0d-10
diago_thr_init=5.0d-4
startingwfc='atomic'
mixing_mode = 'plain'
mixing_beta = 0.7
mixing_ndim = 8
diagonalization = 'david'
diago_david_ndim = 4
diago_full_acc = .true.
/
CELL_PARAMETERS
0.0 5.0 5.0
5.0 0.0 5.0
5.0 5.0 0.0
ATOMIC_SPECIES
Mg  24.305  Mg.pz.nml
O   15.999   O.pz.nml
ATOMIC_POSITIONS crystal
Mg 0.0 0.0 0.0
O 0.05 0.05 0.05
Mg 0.0 0.0 0.1
O 0.05 0.05 0.15
Mg 0.0 0.0 0.2
O 0.05 0.05 0.25
Mg 0.0 0.0 0.3
O 0.05 0.05 0.35
Mg 0.0 0.0 0.4
O 0.05 0.05 0.45
Mg 0.0 0.0 0.5
O 0.05 0.05 0.55
Mg 0.0 0.0 0.6
O 0.05 0.05 0.65
Mg 0.0 0.0 0.7
O 0.05 0.05 0.75
Mg 0.0 0.0 0.8
O 0.05 0.05 0.85
Mg 0.0 0.0 0.9
O 0.05 0.05 0.95
Mg 0.0 0.1 0.0
O 0.05 0.15 0.05
Mg 0.0 0.1 0.1
O 0.05 0.15 0.15
Mg 0.0 0.1 0.2
O 0.05 0.15 0.25
Mg 0.0 0.1 0.3
O 0.05 0.15 0.35
Mg 0.0 0.1 0.4
O 0.05 0.15 0.45
Mg 0.0 0.1 0.5
O 0.05 0.15 0.55
Mg 0.0 0.1 0.6
O 0.05 0.15 0.65
Mg 0.0 0.1 0.7
O 0.05 0.15 0.75
Mg 0.0 0.1 0.8
O 0.05 0.15 0.85
Mg 0.0 0.1 0.9
O 0.05 0.15 0.95
Mg 0.0 0.2 0.0
O 0.05 0.25 0.05
Mg 0.0 0.2 0.1
O 0.05 0.25 0.15
Mg 0.0 0.2 0.2
O 0.05 0.25 0.25
Mg 0.0 0.2 0.3
O 0.05 0.25 0.35
Mg 0.0 0.2 0.4
O 0.05 0.25 0.45
Mg 0.0 0.2 0.5
O 0.05 0.25 0.55
Mg 0.0 0.2 0.6
O 0.05 0.25 0.65
Mg 0.0 0.2 0.7
O 0.05 0.25 0.75
Mg 0.0 0.2 0.8
O 0.05 0.25 0.85
Mg 0.0 0.2 0.9
O 0.05 0.25 0.95
Mg 0.0 0.3 0.0
O 0.05 0.35 0.05
Mg 0.0 0.3 0.1
O 0.05 0.35 0.15
Mg 0.0 0.3 0.2
O 0.05 0.35 0.25
Mg 0.0 0.3 0.3
O 0.05 0.35 0.35
Mg 0.0 0.3 0.4
O 0.05 0.35 0.45
Mg 0.0 0.3 0.5
O 0.05 0.35 0.55
Mg 0.0 0.3 0.6
O 0.05 0.35 0.65
Mg 0.0 0.3 0.7
O 0.05 0.35 0.75
Mg 0.0 0.3 0.8
O 0.05 0.35 0.85
Mg 0.0 0.3 0.9
O 0.05 0.35 0.95
Mg 0.0 0.4 0.0
O 0.05 0.45 0.05
Mg 0.0 0.4 0.1
O 0.05 0.45 0.15
Mg 0.0 0.4 0.2
O 0.05 0.45 0.25
Mg 0.0 0.4 0.3
O 0.05 0.45 0.35
Mg 0.0 0.4 0.4
O 0.05 0.45 0.45
Mg 0.0 0.4 0.5
O 0.05 0.45 0.55
Mg 0.0 0.4 0.6
O 0.05 0.45 0.65
Mg 0.0 0.4 0.7
O 0.05 0.45 0.75
Mg 0.0 0.4 0.8
O 0.05 0.45 0.85
Mg 0.0 0.4 0.9
O 0.05 0.45 0.95
Mg 0.0 0.5 0.0
O 0.05 0.55 0.05
Mg 0.0 0.5 0.1
O 0.05 0.55 0.15
Mg 0.0 0.5 0.2
O 0.05 0.55 0.25
Mg 0.0 0.5 0.3
O 0.05 0.55 0.35
Mg 0.0 0.5 0.4
O 0.05 0.55 0.45
Mg 0.0 0.5 0.5
O 0.05 0.55 0.55
Mg 0.0 0.5 0.6
O 0.05 0.55 0.65
Mg 0.0 0.5 0.7
O 0.05 0.55 0.75
Mg 0.0 0.5 0.8
O 0.05 0.55 0.85
Mg 0.0 0.5 0.9
O 0.05 0.55 0.95
Mg 0.0 0.6 0.0
O 0.05 0.65 0.05
Mg 0.0 0.6 0.1
O 0.05 0.65 0.15
Mg 0.0 0.6 0.2
O 0.05 0.65 0.25
Mg 0.0 0.6 0.3
O 0.05 0.65 0.35
Mg 0.0 0.6 0.4
O 0.05 0.65 0.45
Mg 0.0 0.6 0.5
O 0.05 0.65 0.55
Mg 0.0 0.6 0.6
O 0.05 0.65 0.65
Mg 0.0 0.6 0.7
O 0.05 0.65 0.75
Mg 0.0 0.6 0.8
O 0.05 0.65 0.85
Mg 0.0 0.6 0.9
O 0.05 0.65 0.95
Mg 0.0 0.7 0.0
O 0.05 0.75 0.05
Mg 0.0 0.7 0.1
O 0.05 0.75 0.15
Mg 0.0 0.7 0.2
O 0.05 0.75 0.25
Mg 0.0 0.7 0.3
O 0.05 0.75 0.35
Mg 0.0 0.7 0.4
O 0.05 0.75 0.45
Mg 0.0 0.7 0.5
O 0.05 0.75 0.55
Mg 0.0 0.7 0.6
O 0.05 0.75 0.65
Mg 0.0 0.7 0.7
O 0.05 0.75 0.75
Mg 0.0 0.7 0.8
O 0.05 0.75 0.85
Mg 0.0 0.7 0.9
O 0.05 0.75 0.95
Mg 0.0 0.8 0.0
O 0.05 0.85 0.05
Mg 0.0 0.8 0.1
O 0.05 0.85 0.15
Mg 0.0 0.8 0.2
O 0.05 0.85 0.25
Mg 0.0 0.8 0.3
O 0.05 0.85 0.35
Mg 0.0 0.8 0.4
O 0.05 0.85 0.45
Mg 0.0 0.8 0.5
O 0.05 0.85 0.55
Mg 0.0 0.8 0.6
O 0.05 0.85 0.65
Mg 0.0 0.8 0.7
O 0.05 0.85 0.75
Mg 0.0 0.8 0.8
O 0.05 0.85 0.85
Mg 0.0 0.8 0.9
O 0.05 0.85 0.95
Mg 0.0 0.9 0.0
O 0.05 0.95 0.05
Mg 0.0 0.9 0.1
O 0.05 0.95 0.15
Mg 0.0 0.9 0.2
O 0.05 0.95 0.25
Mg 0.0 0.9 0.3
O 0.05 0.95 0.35
Mg 0.0 0.9 0.4
O 0.05 0.95 0.45
Mg 0.0 0.9 0.5
O 0.05 0.95 0.55
Mg 0.0 0.9 0.6
O 0.05 0.95 0.65
Mg 0.0 0.9 0.7
O 0.05 0.95 0.75
Mg 0.0 0.9 0.8
O 0.05 0.95 0.85
Mg 0.0 0.9 0.9
O 0.05 0.95 0.95
Mg 0.1 0.0 0.0
O 0.15 0.05 0.05
Mg 0.1 0.0 0.1
O 0.15 0.05 0.15
Mg 0.1 0.0 0.2
O 0.15 0.05 0.25
Mg 0.1 0.0 0.3
O 0.15 0.05 0.35
Mg 0.1 0.0 0.4
O 0.15 0.05 0.45
Mg 0.1 0.0 0.5
O 0.15 0.05 0.55
Mg 0.1 0.0 0.6
O 0.15 0.05 0.65
Mg 0.1 0.0 0.7
O 0.15 0.05 0.75
Mg 0.1 0.0 0.8
O 0.15 0.05 0.85
Mg 0.1 0.0 0.9
O 0.15 0.05 0.95
Mg 0.1 0.1 0.0
O 0.15 0.15 0.05
Mg 0.1 0.1 0.1
O 0.15 0.15 0.15
Mg 0.1 0.1 0.2
O 0.15 0.15 0.25
Mg 0.1 0.1 0.3
O 0.15 0.15 0.35
Mg 0.1 0.1 0.4
O 0.15 0.15 0.45
Mg 0.1 0.1 0.5
O 0.15 0.15 0.55
Mg 0.1 0.1 0.6
O 0.15 0.15 0.65
Mg 0.1 0.1 0.7
O 0.15 0.15 0.75
Mg 0.1 0.1 0.8
O 0.15 0.15 0.85
Mg 0.1 0.1 0.9
O 0.15 0.15 0.95
Mg 0.1 0.2 0.0
O 0.15 0.25 0.05
Mg 0.1 0.2 0.1
O 0.15 0.25 0.15
Mg 0.1 0.2 0.2
O 0.15 0.25 0.25
Mg 0.1 0.2 0.3
O 0.15 0.25 0.35
Mg 0.1 0.2 0.4
O 0.15 0.25 0.45
Mg 0.1 0.2 0.5
O 0.15 0.25 0.55
Mg 0.1 0.2 0.6
O 0.15 0.25 0.65
Mg 0.1 0.2 0.7
O 0.15 0.25 0.75
Mg 0.1 0.2 0.8
O 0.15 0.25 0.85
Mg 0.1 0.2 0.9
O 0.15 0.25 0.95
Mg 0.1 0.3 0.0
O 0.15 0.35 0.05
Mg 0.1 0.3 0.1
O 0.15 0.35 0.15
Mg 0.1 0.3 0.2
O 0.15 0.35 0.25
Mg 0.1 0.3 0.3
O 0.15 0.35 0.35
Mg 0.1 0.3 0.4
O 0.15 0.35 0.45
Mg 0.1 0.3 0.5
O 0.15 0.35 0.55
Mg 0.1 0.3 0.6
O 0.15 0.35 0.65
Mg 0.1 0.3 0.7
O 0.15 0.35 0.75
Mg 0.1 0.3 0.8
O 0.15 0.35 0.85
Mg 0.1 0.3 0.9
O 0.15 0.35 0.95
Mg 0.1 0.4 0.0
O 0.15 0.45 0.05
Mg 0.1 0.4 0.1
O 0.15 0.45 0.15
Mg 0.1 0.4 0.2
O 0.15 0.45 0.25
Mg 0.1 0.4 0.3
O 0.15 0.45 0.35
Mg 0.1 0.4 0.4
O 0.15 0.45 0.45
Mg 0.1 0.4 0.5
O 0.15 0.45 0.55
Mg 0.1 0.4 0.6
O 0.15 0.45 0.65
Mg 0.1 0.4 0.7
O 0.15 0.45 0.75
Mg 0.1 0.4 0.8
O 0.15 0.45 0.85
Mg 0.1 0.4 0.9
O 0.15 0.45 0.95
Mg 0.1 0.5 0.0
O 0.15 0.55 0.05
Mg 0.1 0.5 0.1
O 0.15 0.55 0.15
Mg 0.1 0.5 0.2
O 0.15 0.55 0.25
Mg 0.1 0.5 0.3
O 0.15 0.55 0.35
Mg 0.1 0.5 0.4
O 0.15 0.55 0.45
Mg 0.1 0.5 0.5
O 0.15 0.55 0.55
Mg 0.1 0.5 0.6
O 0.15 0.55 0.65
Mg 0.1 0.5 0.7
O 0.15 0.55 0.75
Mg 0.1 0.5 0.8
O 0.15 0.55 0.85
Mg 0.1 0.5 0.9
O 0.15 0.55 0.95
Mg 0.1 0.6 0.0
O 0.15 0.65 0.05
Mg 0.1 0.6 0.1
O 0.15 0.65 0.15
Mg 0.1 0.6 0.2
O 0.15 0.65 0.25
Mg 0.1 0.6 0.3
O 0.15 0.65 0.35
Mg 0.1 0.6 0.4
O 0.15 0.65 0.45
Mg 0.1 0.6 0.5
O 0.15 0.65 0.55
Mg 0.1 0.6 0.6
O 0.15 0.65 0.65
Mg 0.1 0.6 0.7
O 0.15 0.65 0.75
Mg 0.1 0.6 0.8
O 0.15 0.65 0.85
Mg 0.1 0.6 0.9
O 0.15 0.65 0.95
Mg 0.1 0.7 0.0
O 0.15 0.75 0.05
Mg 0.1 0.7 0.1
O 0.15 0.75 0.15
Mg 0.1 0.7 0.2
O 0.15 0.75 0.25
Mg 0.1 0.7 0.3
O 0.15 0.75 0.35
Mg 0.1 0.7 0.4
O 0.15 0.75 0.45
Mg 0.1 0.7 0.5
O 0.15 0.75 0.55
Mg 0.1 0.7 0.6
O 0.15 0.75 0.65
Mg 0.1 0.7 0.7
O 0.15 0.75 0.75
Mg 0.1 0.7 0.8
O 0.15 0.75 0.85
Mg 0.1 0.7 0.9
O 0.15 0.75 0.95
Mg 0.1 0.8 0.0
O 0.15 0.85 0.05
Mg 0.1 0.8 0.1
O 0.15 0.85 0.15
Mg 0.1 0.8 0.2
O 0.15 0.85 0.25
Mg 0.1 0.8 0.3
O 0.15 0.85 0.35
Mg 0.1 0.8 0.4
O 0.15 0.85 0.45
Mg 0.1 0.8 0.5
O 0.15 0.85 0.55
Mg 0.1 0.8 0.6
O 0.15 0.85 0.65
Mg 0.1 0.8 0.7
O 0.15 0.85 0.75
Mg 0.1 0.8 0.8
O 0.15 0.85 0.85
Mg 0.1 0.8 0.9
O 0.15 0.85 0.95
Mg 0.1 0.9 0.0
O 0.15 0.95 0.05
Mg 0.1 0.9 0.1
O 0.15 0.95 0.15
Mg 0.1 0.9 0.2
O 0.15 0.95 0.25
Mg 0.1 0.9 0.3
O 0.15 0.95 0.35
Mg 0.1 0.9 0.4
O 0.15 0.95 0.45
Mg 0.1 0.9 0.5
O 0.15 0.95 0.55
Mg 0.1 0.9 0.6
O 0.15 0.95 0.65
Mg 0.1 0.9 0.7
O 0.15 0.95 0.75
Mg 0.1 0.9 0.8
O 0.15 0.95 0.85
Mg 0.1 0.9 0.9
O 0.15 0.95 0.95
Mg 0.2 0.0 0.0
O 0.25 0.05 0.05
Mg 0.2 0.0 0.1
O 0.25 0.05 0.15
Mg 0.2 0.0 0.2
O 0.25 0.05 0.25
Mg 0.2 0.0 0.3
O 0.25 0.05 0.35
Mg 0.2 0.0 0.4
O 0.25 0.05 0.45
Mg 0.2 0.0 0.5
O 0.25 0.05 0.55
Mg 0.2 0.0 0.6
O 0.25 0.05 0.65
Mg 0.2 0.0 0.7
O 0.25 0.05 0.75
Mg 0.2 0.0 0.8
O 0.25 0.05 0.85
Mg 0.2 0.0 0.9
O 0.25 0.05 0.95
Mg 0.2 0.1 0.0
O 0.25 0.15 0.05
Mg 0.2 0.1 0.1
O 0.25 0.15 0.15
Mg 0.2 0.1 0.2
O 0.25 0.15 0.25
Mg 0.2 0.1 0.3
O 0.25 0.15 0.35
Mg 0.2 0.1 0.4
O 0.25 0.15 0.45
Mg 0.2 0.1 0.5
O 0.25 0.15 0.55
Mg 0.2 0.1 0.6
O 0.25 0.15 0.65
Mg 0.2 0.1 0.7
O 0.25 0.15 0.75
Mg 0.2 0.1 0.8
O 0.25 0.15 0.85
Mg 0.2 0.1 0.9
O 0.25 0.15 0.95
Mg 0.2 0.2 0.0
O 0.25 0.25 0.05
Mg 0.2 0.2 0.1
O 0.25 0.25 0.15
Mg 0.2 0.2 0.2
O 0.25 0.25 0.25
Mg 0.2 0.2 0.3
O 0.25 0.25 0.35
Mg 0.2 0.2 0.4
O 0.25 0.25 0.45
Mg 0.2 0.2 0.5
O 0.25 0.25 0.55
Mg 0.2 0.2 0.6
O 0.25 0.25 0.65
Mg 0.2 0.2 0.7
O 0.25 0.25 0.75
Mg 0.2 0.2 0.8
O 0.25 0.25 0.85
Mg 0.2 0.2 0.9
O 0.25 0.25 0.95
Mg 0.2 0.3 0.0
O 0.25 0.35 0.05
Mg 0.2 0.3 0.1
O 0.25 0.35 0.15
Mg 0.2 0.3 0.2
O 0.25 0.35 0.25
Mg 0.2 0.3 0.3
O 0.25 0.35 0.35
Mg 0.2 0.3 0.4
O 0.25 0.35 0.45
Mg 0.2 0.3 0.5
O 0.25 0.35 0.55
Mg 0.2 0.3 0.6
O 0.25 0.35 0.65
Mg 0.2 0.3 0.7
O 0.25 0.35 0.75
Mg 0.2 0.3 0.8
O 0.25 0.35 0.85
Mg 0.2 0.3 0.9
O 0.25 0.35 0.95
Mg 0.2 0.4 0.0
O 0.25 0.45 0.05
Mg 0.2 0.4 0.1
O 0.25 0.45 0.15
Mg 0.2 0.4 0.2
O 0.25 0.45 0.25
Mg 0.2 0.4 0.3
O 0.25 0.45 0.35
Mg 0.2 0.4 0.4
O 0.25 0.45 0.45
Mg 0.2 0.4 0.5
O 0.25 0.45 0.55
Mg 0.2 0.4 0.6
O 0.25 0.45 0.65
Mg 0.2 0.4 0.7
O 0.25 0.45 0.75
Mg 0.2 0.4 0.8
O 0.25 0.45 0.85
Mg 0.2 0.4 0.9
O 0.25 0.45 0.95
Mg 0.2 0.5 0.0
O 0.25 0.55 0.05
Mg 0.2 0.5 0.1
O 0.25 0.55 0.15
Mg 0.2 0.5 0.2
O 0.25 0.55 0.25
Mg 0.2 0.5 0.3
O 0.25 0.55 0.35
Mg 0.2 0.5 0.4
O 0.25 0.55 0.45
Mg 0.2 0.5 0.5
O 0.25 0.55 0.55
Mg 0.2 0.5 0.6
O 0.25 0.55 0.65
Mg 0.2 0.5 0.7
O 0.25 0.55 0.75
Mg 0.2 0.5 0.8
O 0.25 0.55 0.85
Mg 0.2 0.5 0.9
O 0.25 0.55 0.95
Mg 0.2 0.6 0.0
O 0.25 0.65 0.05
Mg 0.2 0.6 0.1
O 0.25 0.65 0.15
Mg 0.2 0.6 0.2
O 0.25 0.65 0.25
Mg 0.2 0.6 0.3
O 0.25 0.65 0.35
Mg 0.2 0.6 0.4
O 0.25 0.65 0.45
Mg 0.2 0.6 0.5
O 0.25 0.65 0.55
Mg 0.2 0.6 0.6
O 0.25 0.65 0.65
Mg 0.2 0.6 0.7
O 0.25 0.65 0.75
Mg 0.2 0.6 0.8
O 0.25 0.65 0.85
Mg 0.2 0.6 0.9
O 0.25 0.65 0.95
Mg 0.2 0.7 0.0
O 0.25 0.75 0.05
Mg 0.2 0.7 0.1
O 0.25 0.75 0.15
Mg 0.2 0.7 0.2
O 0.25 0.75 0.25
Mg 0.2 0.7 0.3
O 0.25 0.75 0.35
Mg 0.2 0.7 0.4
O 0.25 0.75 0.45
Mg 0.2 0.7 0.5
O 0.25 0.75 0.55
Mg 0.2 0.7 0.6
O 0.25 0.75 0.65
Mg 0.2 0.7 0.7
O 0.25 0.75 0.75
Mg 0.2 0.7 0.8
O 0.25 0.75 0.85
Mg 0.2 0.7 0.9
O 0.25 0.75 0.95
Mg 0.2 0.8 0.0
O 0.25 0.85 0.05
Mg 0.2 0.8 0.1
O 0.25 0.85 0.15
Mg 0.2 0.8 0.2
O 0.25 0.85 0.25
Mg 0.2 0.8 0.3
O 0.25 0.85 0.35
Mg 0.2 0.8 0.4
O 0.25 0.85 0.45
Mg 0.2 0.8 0.5
O 0.25 0.85 0.55
Mg 0.2 0.8 0.6
O 0.25 0.85 0.65
Mg 0.2 0.8 0.7
O 0.25 0.85 0.75
Mg 0.2 0.8 0.8
O 0.25 0.85 0.85
Mg 0.2 0.8 0.9
O 0.25 0.85 0.95
Mg 0.2 0.9 0.0
O 0.25 0.95 0.05
Mg 0.2 0.9 0.1
O 0.25 0.95 0.15
Mg 0.2 0.9 0.2
O 0.25 0.95 0.25
Mg 0.2 0.9 0.3
O 0.25 0.95 0.35
Mg 0.2 0.9 0.4
O 0.25 0.95 0.45
Mg 0.2 0.9 0.5
O 0.25 0.95 0.55
Mg 0.2 0.9 0.6
O 0.25 0.95 0.65
Mg 0.2 0.9 0.7
O 0.25 0.95 0.75
Mg 0.2 0.9 0.8
O 0.25 0.95 0.85
Mg 0.2 0.9 0.9
O 0.25 0.95 0.95
Mg 0.3 0.0 0.0
O 0.35 0.05 0.05
Mg 0.3 0.0 0.1
O 0.35 0.05 0.15
Mg 0.3 0.0 0.2
O 0.35 0.05 0.25
Mg 0.3 0.0 0.3
O 0.35 0.05 0.35
Mg 0.3 0.0 0.4
O 0.35 0.05 0.45
Mg 0.3 0.0 0.5
O 0.35 0.05 0.55
Mg 0.3 0.0 0.6
O 0.35 0.05 0.65
Mg 0.3 0.0 0.7
O 0.35 0.05 0.75
Mg 0.3 0.0 0.8
O 0.35 0.05 0.85
Mg 0.3 0.0 0.9
O 0.35 0.05 0.95
Mg 0.3 0.1 0.0
O 0.35 0.15 0.05
Mg 0.3 0.1 0.1
O 0.35 0.15 0.15
Mg 0.3 0.1 0.2
O 0.35 0.15 0.25
Mg 0.3 0.1 0.3
O 0.35 0.15 0.35
Mg 0.3 0.1 0.4
O 0.35 0.15 0.45
Mg 0.3 0.1 0.5
O 0.35 0.15 0.55
Mg 0.3 0.1 0.6
O 0.35 0.15 0.65
Mg 0.3 0.1 0.7
O 0.35 0.15 0.75
Mg 0.3 0.1 0.8
O 0.35 0.15 0.85
Mg 0.3 0.1 0.9
O 0.35 0.15 0.95
Mg 0.3 0.2 0.0
O 0.35 0.25 0.05
Mg 0.3 0.2 0.1
O 0.35 0.25 0.15
Mg 0.3 0.2 0.2
O 0.35 0.25 0.25
Mg 0.3 0.2 0.3
O 0.35 0.25 0.35
Mg 0.3 0.2 0.4
O 0.35 0.25 0.45
Mg 0.3 0.2 0.5
O 0.35 0.25 0.55
Mg 0.3 0.2 0.6
O 0.35 0.25 0.65
Mg 0.3 0.2 0.7
O 0.35 0.25 0.75
Mg 0.3 0.2 0.8
O 0.35 0.25 0.85
Mg 0.3 0.2 0.9
O 0.35 0.25 0.95
Mg 0.3 0.3 0.0
O 0.35 0.35 0.05
Mg 0.3 0.3 0.1
O 0.35 0.35 0.15
Mg 0.3 0.3 0.2
O 0.35 0.35 0.25
Mg 0.3 0.3 0.3
O 0.35 0.35 0.35
Mg 0.3 0.3 0.4
O 0.35 0.35 0.45
Mg 0.3 0.3 0.5
O 0.35 0.35 0.55
Mg 0.3 0.3 0.6
O 0.35 0.35 0.65
Mg 0.3 0.3 0.7
O 0.35 0.35 0.75
Mg 0.3 0.3 0.8
O 0.35 0.35 0.85
Mg 0.3 0.3 0.9
O 0.35 0.35 0.95
Mg 0.3 0.4 0.0
O 0.35 0.45 0.05
Mg 0.3 0.4 0.1
O 0.35 0.45 0.15
Mg 0.3 0.4 0.2
O 0.35 0.45 0.25
Mg 0.3 0.4 0.3
O 0.35 0.45 0.35
Mg 0.3 0.4 0.4
O 0.35 0.45 0.45
Mg 0.3 0.4 0.5
O 0.35 0.45 0.55
Mg 0.3 0.4 0.6
O 0.35 0.45 0.65
Mg 0.3 0.4 0.7
O 0.35 0.45 0.75
Mg 0.3 0.4 0.8
O 0.35 0.45 0.85
Mg 0.3 0.4 0.9
O 0.35 0.45 0.95
Mg 0.3 0.5 0.0
O 0.35 0.55 0.05
Mg 0.3 0.5 0.1
O 0.35 0.55 0.15
Mg 0.3 0.5 0.2
O 0.35 0.55 0.25
Mg 0.3 0.5 0.3
O 0.35 0.55 0.35
Mg 0.3 0.5 0.4
O 0.35 0.55 0.45
Mg 0.3 0.5 0.5
O 0.35 0.55 0.55
Mg 0.3 0.5 0.6
O 0.35 0.55 0.65
Mg 0.3 0.5 0.7
O 0.35 0.55 0.75
Mg 0.3 0.5 0.8
O 0.35 0.55 0.85
Mg 0.3 0.5 0.9
O 0.35 0.55 0.95
Mg 0.3 0.6 0.0
O 0.35 0.65 0.05
Mg 0.3 0.6 0.1
O 0.35 0.65 0.15
Mg 0.3 0.6 0.2
O 0.35 0.65 0.25
Mg 0.3 0.6 0.3
O 0.35 0.65 0.35
Mg 0.3 0.6 0.4
O 0.35 0.65 0.45
Mg 0.3 0.6 0.5
O 0.35 0.65 0.55
Mg 0.3 0.6 0.6
O 0.35 0.65 0.65
Mg 0.3 0.6 0.7
O 0.35 0.65 0.75
Mg 0.3 0.6 0.8
O 0.35 0.65 0.85
Mg 0.3 0.6 0.9
O 0.35 0.65 0.95
Mg 0.3 0.7 0.0
O 0.35 0.75 0.05
Mg 0.3 0.7 0.1
O 0.35 0.75 0.15
Mg 0.3 0.7 0.2
O 0.35 0.75 0.25
Mg 0.3 0.7 0.3
O 0.35 0.75 0.35
Mg 0.3 0.7 0.4
O 0.35 0.75 0.45
Mg 0.3 0.7 0.5
O 0.35 0.75 0.55
Mg 0.3 0.7 0.6
O 0.35 0.75 0.65
Mg 0.3 0.7 0.7
O 0.35 0.75 0.75
Mg 0.3 0.7 0.8
O 0.35 0.75 0.85
Mg 0.3 0.7 0.9
O 0.35 0.75 0.95
Mg 0.3 0.8 0.0
O 0.35 0.85 0.05
Mg 0.3 0.8 0.1
O 0.35 0.85 0.15
Mg 0.3 0.8 0.2
O 0.35 0.85 0.25
Mg 0.3 0.8 0.3
O 0.35 0.85 0.35
Mg 0.3 0.8 0.4
O 0.35 0.85 0.45
Mg 0.3 0.8 0.5
O 0.35 0.85 0.55
Mg 0.3 0.8 0.6
O 0.35 0.85 0.65
Mg 0.3 0.8 0.7
O 0.35 0.85 0.75
Mg 0.3 0.8 0.8
O 0.35 0.85 0.85
Mg 0.3 0.8 0.9
O 0.35 0.85 0.95
Mg 0.3 0.9 0.0
O 0.35 0.95 0.05
Mg 0.3 0.9 0.1
O 0.35 0.95 0.15
Mg 0.3 0.9 0.2
O 0.35 0.95 0.25
Mg 0.3 0.9 0.3
O 0.35 0.95 0.35
Mg 0.3 0.9 0.4
O 0.35 0.95 0.45
Mg 0.3 0.9 0.5
O 0.35 0.95 0.55
Mg 0.3 0.9 0.6
O 0.35 0.95 0.65
Mg 0.3 0.9 0.7
O 0.35 0.95 0.75
Mg 0.3 0.9 0.8
O 0.35 0.95 0.85
Mg 0.3 0.9 0.9
O 0.35 0.95 0.95
Mg 0.4 0.0 0.0
O 0.45 0.05 0.05
Mg 0.4 0.0 0.1
O 0.45 0.05 0.15
Mg 0.4 0.0 0.2
O 0.45 0.05 0.25
Mg 0.4 0.0 0.3
O 0.45 0.05 0.35
Mg 0.4 0.0 0.4
O 0.45 0.05 0.45
Mg 0.4 0.0 0.5
O 0.45 0.05 0.55
Mg 0.4 0.0 0.6
O 0.45 0.05 0.65
Mg 0.4 0.0 0.7
O 0.45 0.05 0.75
Mg 0.4 0.0 0.8
O 0.45 0.05 0.85
Mg 0.4 0.0 0.9
O 0.45 0.05 0.95
Mg 0.4 0.1 0.0
O 0.45 0.15 0.05
Mg 0.4 0.1 0.1
O 0.45 0.15 0.15
Mg 0.4 0.1 0.2
O 0.45 0.15 0.25
Mg 0.4 0.1 0.3
O 0.45 0.15 0.35
Mg 0.4 0.1 0.4
O 0.45 0.15 0.45
Mg 0.4 0.1 0.5
O 0.45 0.15 0.55
Mg 0.4 0.1 0.6
O 0.45 0.15 0.65
Mg 0.4 0.1 0.7
O 0.45 0.15 0.75
Mg 0.4 0.1 0.8
O 0.45 0.15 0.85
Mg 0.4 0.1 0.9
O 0.45 0.15 0.95
Mg 0.4 0.2 0.0
O 0.45 0.25 0.05
Mg 0.4 0.2 0.1
O 0.45 0.25 0.15
Mg 0.4 0.2 0.2
O 0.45 0.25 0.25
Mg 0.4 0.2 0.3
O 0.45 0.25 0.35
Mg 0.4 0.2 0.4
O 0.45 0.25 0.45
Mg 0.4 0.2 0.5
O 0.45 0.25 0.55
Mg 0.4 0.2 0.6
O 0.45 0.25 0.65
Mg 0.4 0.2 0.7
O 0.45 0.25 0.75
Mg 0.4 0.2 0.8
O 0.45 0.25 0.85
Mg 0.4 0.2 0.9
O 0.45 0.25 0.95
Mg 0.4 0.3 0.0
O 0.45 0.35 0.05
Mg 0.4 0.3 0.1
O 0.45 0.35 0.15
Mg 0.4 0.3 0.2
O 0.45 0.35 0.25
Mg 0.4 0.3 0.3
O 0.45 0.35 0.35
Mg 0.4 0.3 0.4
O 0.45 0.35 0.45
Mg 0.4 0.3 0.5
O 0.45 0.35 0.55
Mg 0.4 0.3 0.6
O 0.45 0.35 0.65
Mg 0.4 0.3 0.7
O 0.45 0.35 0.75
Mg 0.4 0.3 0.8
O 0.45 0.35 0.85
Mg 0.4 0.3 0.9
O 0.45 0.35 0.95
Mg 0.4 0.4 0.0
O 0.45 0.45 0.05
Mg 0.4 0.4 0.1
O 0.45 0.45 0.15
Mg 0.4 0.4 0.2
O 0.45 0.45 0.25
Mg 0.4 0.4 0.3
O 0.45 0.45 0.35
Mg 0.4 0.4 0.4
O 0.45 0.45 0.45
Mg 0.4 0.4 0.5
O 0.45 0.45 0.55
Mg 0.4 0.4 0.6
O 0.45 0.45 0.65
Mg 0.4 0.4 0.7
O 0.45 0.45 0.75
Mg 0.4 0.4 0.8
O 0.45 0.45 0.85
Mg 0.4 0.4 0.9
O 0.45 0.45 0.95
Mg 0.4 0.5 0.0
O 0.45 0.55 0.05
Mg 0.4 0.5 0.1
O 0.45 0.55 0.15
Mg 0.4 0.5 0.2
O 0.45 0.55 0.25
Mg 0.4 0.5 0.3
O 0.45 0.55 0.35
Mg 0.4 0.5 0.4
O 0.45 0.55 0.45
Mg 0.4 0.5 0.5
O 0.45 0.55 0.55
Mg 0.4 0.5 0.6
O 0.45 0.55 0.65
Mg 0.4 0.5 0.7
O 0.45 0.55 0.75
Mg 0.4 0.5 0.8
O 0.45 0.55 0.85
Mg 0.4 0.5 0.9
O 0.45 0.55 0.95
Mg 0.4 0.6 0.0
O 0.45 0.65 0.05
Mg 0.4 0.6 0.1
O 0.45 0.65 0.15
Mg 0.4 0.6 0.2
O 0.45 0.65 0.25
Mg 0.4 0.6 0.3
O 0.45 0.65 0.35
Mg 0.4 0.6 0.4
O 0.45 0.65 0.45
Mg 0.4 0.6 0.5
O 0.45 0.65 0.55
Mg 0.4 0.6 0.6
O 0.45 0.65 0.65
Mg 0.4 0.6 0.7
O 0.45 0.65 0.75
Mg 0.4 0.6 0.8
O 0.45 0.65 0.85
Mg 0.4 0.6 0.9
O 0.45 0.65 0.95
Mg 0.4 0.7 0.0
O 0.45 0.75 0.05
Mg 0.4 0.7 0.1
O 0.45 0.75 0.15
Mg 0.4 0.7 0.2
O 0.45 0.75 0.25
Mg 0.4 0.7 0.3
O 0.45 0.75 0.35
Mg 0.4 0.7 0.4
O 0.45 0.75 0.45
Mg 0.4 0.7 0.5
O 0.45 0.75 0.55
Mg 0.4 0.7 0.6
O 0.45 0.75 0.65
Mg 0.4 0.7 0.7
O 0.45 0.75 0.75
Mg 0.4 0.7 0.8
O 0.45 0.75 0.85
Mg 0.4 0.7 0.9
O 0.45 0.75 0.95
Mg 0.4 0.8 0.0
O 0.45 0.85 0.05
Mg 0.4 0.8 0.1
O 0.45 0.85 0.15
Mg 0.4 0.8 0.2
O 0.45 0.85 0.25
Mg 0.4 0.8 0.3
O 0.45 0.85 0.35
Mg 0.4 0.8 0.4
O 0.45 0.85 0.45
Mg 0.4 0.8 0.5
O 0.45 0.85 0.55
Mg 0.4 0.8 0.6
O 0.45 0.85 0.65
Mg 0.4 0.8 0.7
O 0.45 0.85 0.75
Mg 0.4 0.8 0.8
O 0.45 0.85 0.85
Mg 0.4 0.8 0.9
O 0.45 0.85 0.95
Mg 0.4 0.9 0.0
O 0.45 0.95 0.05
Mg 0.4 0.9 0.1
O 0.45 0.95 0.15
Mg 0.4 0.9 0.2
O 0.45 0.95 0.25
Mg 0.4 0.9 0.3
O 0.45 0.95 0.35
Mg 0.4 0.9 0.4
O 0.45 0.95 0.45
Mg 0.4 0.9 0.5
O 0.45 0.95 0.55
Mg 0.4 0.9 0.6
O 0.45 0.95 0.65
Mg 0.4 0.9 0.7
O 0.45 0.95 0.75
Mg 0.4 0.9 0.8
O 0.45 0.95 0.85
Mg 0.4 0.9 0.9
O 0.45 0.95 0.95
Mg 0.5 0.0 0.0
O 0.55 0.05 0.05
Mg 0.5 0.0 0.1
O 0.55 0.05 0.15
Mg 0.5 0.0 0.2
O 0.55 0.05 0.25
Mg 0.5 0.0 0.3
O 0.55 0.05 0.35
Mg 0.5 0.0 0.4
O 0.55 0.05 0.45
Mg 0.5 0.0 0.5
O 0.55 0.05 0.55
Mg 0.5 0.0 0.6
O 0.55 0.05 0.65
Mg 0.5 0.0 0.7
O 0.55 0.05 0.75
Mg 0.5 0.0 0.8
O 0.55 0.05 0.85
Mg 0.5 0.0 0.9
O 0.55 0.05 0.95
Mg 0.5 0.1 0.0
O 0.55 0.15 0.05
Mg 0.5 0.1 0.1
O 0.55 0.15 0.15
Mg 0.5 0.1 0.2
O 0.55 0.15 0.25
Mg 0.5 0.1 0.3
O 0.55 0.15 0.35
Mg 0.5 0.1 0.4
O 0.55 0.15 0.45
Mg 0.5 0.1 0.5
O 0.55 0.15 0.55
Mg 0.5 0.1 0.6
O 0.55 0.15 0.65
Mg 0.5 0.1 0.7
O 0.55 0.15 0.75
Mg 0.5 0.1 0.8
O 0.55 0.15 0.85
Mg 0.5 0.1 0.9
O 0.55 0.15 0.95
Mg 0.5 0.2 0.0
O 0.55 0.25 0.05
Mg 0.5 0.2 0.1
O 0.55 0.25 0.15
Mg 0.5 0.2 0.2
O 0.55 0.25 0.25
Mg 0.5 0.2 0.3
O 0.55 0.25 0.35
Mg 0.5 0.2 0.4
O 0.55 0.25 0.45
Mg 0.5 0.2 0.5
O 0.55 0.25 0.55
Mg 0.5 0.2 0.6
O 0.55 0.25 0.65
Mg 0.5 0.2 0.7
O 0.55 0.25 0.75
Mg 0.5 0.2 0.8
O 0.55 0.25 0.85
Mg 0.5 0.2 0.9
O 0.55 0.25 0.95
Mg 0.5 0.3 0.0
O 0.55 0.35 0.05
Mg 0.5 0.3 0.1
O 0.55 0.35 0.15
Mg 0.5 0.3 0.2
O 0.55 0.35 0.25
Mg 0.5 0.3 0.3
O 0.55 0.35 0.35
Mg 0.5 0.3 0.4
O 0.55 0.35 0.45
Mg 0.5 0.3 0.5
O 0.55 0.35 0.55
Mg 0.5 0.3 0.6
O 0.55 0.35 0.65
Mg 0.5 0.3 0.7
O 0.55 0.35 0.75
Mg 0.5 0.3 0.8
O 0.55 0.35 0.85
Mg 0.5 0.3 0.9
O 0.55 0.35 0.95
Mg 0.5 0.4 0.0
O 0.55 0.45 0.05
Mg 0.5 0.4 0.1
O 0.55 0.45 0.15
Mg 0.5 0.4 0.2
O 0.55 0.45 0.25
Mg 0.5 0.4 0.3
O 0.55 0.45 0.35
Mg 0.5 0.4 0.4
O 0.55 0.45 0.45
Mg 0.5 0.4 0.5
O 0.55 0.45 0.55
Mg 0.5 0.4 0.6
O 0.55 0.45 0.65
Mg 0.5 0.4 0.7
O 0.55 0.45 0.75
Mg 0.5 0.4 0.8
O 0.55 0.45 0.85
Mg 0.5 0.4 0.9
O 0.55 0.45 0.95
Mg 0.5 0.5 0.0
O 0.55 0.55 0.05
Mg 0.5 0.5 0.1
O 0.55 0.55 0.15
Mg 0.5 0.5 0.2
O 0.55 0.55 0.25
Mg 0.5 0.5 0.3
O 0.55 0.55 0.35
Mg 0.5 0.5 0.4
O 0.55 0.55 0.45
Mg 0.5 0.5 0.5
O 0.55 0.55 0.55
Mg 0.5 0.5 0.6
O 0.55 0.55 0.65
Mg 0.5 0.5 0.7
O 0.55 0.55 0.75
Mg 0.5 0.5 0.8
O 0.55 0.55 0.85
Mg 0.5 0.5 0.9
O 0.55 0.55 0.95
Mg 0.5 0.6 0.0
O 0.55 0.65 0.05
Mg 0.5 0.6 0.1
O 0.55 0.65 0.15
Mg 0.5 0.6 0.2
O 0.55 0.65 0.25
Mg 0.5 0.6 0.3
O 0.55 0.65 0.35
Mg 0.5 0.6 0.4
O 0.55 0.65 0.45
Mg 0.5 0.6 0.5
O 0.55 0.65 0.55
Mg 0.5 0.6 0.6
O 0.55 0.65 0.65
Mg 0.5 0.6 0.7
O 0.55 0.65 0.75
Mg 0.5 0.6 0.8
O 0.55 0.65 0.85
Mg 0.5 0.6 0.9
O 0.55 0.65 0.95
Mg 0.5 0.7 0.0
O 0.55 0.75 0.05
Mg 0.5 0.7 0.1
O 0.55 0.75 0.15
Mg 0.5 0.7 0.2
O 0.55 0.75 0.25
Mg 0.5 0.7 0.3
O 0.55 0.75 0.35
Mg 0.5 0.7 0.4
O 0.55 0.75 0.45
Mg 0.5 0.7 0.5
O 0.55 0.75 0.55
Mg 0.5 0.7 0.6
O 0.55 0.75 0.65
Mg 0.5 0.7 0.7
O 0.55 0.75 0.75
Mg 0.5 0.7 0.8
O 0.55 0.75 0.85
Mg 0.5 0.7 0.9
O 0.55 0.75 0.95
Mg 0.5 0.8 0.0
O 0.55 0.85 0.05
Mg 0.5 0.8 0.1
O 0.55 0.85 0.15
Mg 0.5 0.8 0.2
O 0.55 0.85 0.25
Mg 0.5 0.8 0.3
O 0.55 0.85 0.35
Mg 0.5 0.8 0.4
O 0.55 0.85 0.45
Mg 0.5 0.8 0.5
O 0.55 0.85 0.55
Mg 0.5 0.8 0.6
O 0.55 0.85 0.65
Mg 0.5 0.8 0.7
O 0.55 0.85 0.75
Mg 0.5 0.8 0.8
O 0.55 0.85 0.85
Mg 0.5 0.8 0.9
O 0.55 0.85 0.95
Mg 0.5 0.9 0.0
O 0.55 0.95 0.05
Mg 0.5 0.9 0.1
O 0.55 0.95 0.15
Mg 0.5 0.9 0.2
O 0.55 0.95 0.25
Mg 0.5 0.9 0.3
O 0.55 0.95 0.35
Mg 0.5 0.9 0.4
O 0.55 0.95 0.45
Mg 0.5 0.9 0.5
O 0.55 0.95 0.55
Mg 0.5 0.9 0.6
O 0.55 0.95 0.65
Mg 0.5 0.9 0.7
O 0.55 0.95 0.75
Mg 0.5 0.9 0.8
O 0.55 0.95 0.85
Mg 0.5 0.9 0.9
O 0.55 0.95 0.95
Mg 0.6 0.0 0.0
O 0.65 0.05 0.05
Mg 0.6 0.0 0.1
O 0.65 0.05 0.15
Mg 0.6 0.0 0.2
O 0.65 0.05 0.25
Mg 0.6 0.0 0.3
O 0.65 0.05 0.35
Mg 0.6 0.0 0.4
O 0.65 0.05 0.45
Mg 0.6 0.0 0.5
O 0.65 0.05 0.55
Mg 0.6 0.0 0.6
O 0.65 0.05 0.65
Mg 0.6 0.0 0.7
O 0.65 0.05 0.75
Mg 0.6 0.0 0.8
O 0.65 0.05 0.85
Mg 0.6 0.0 0.9
O 0.65 0.05 0.95
Mg 0.6 0.1 0.0
O 0.65 0.15 0.05
Mg 0.6 0.1 0.1
O 0.65 0.15 0.15
Mg 0.6 0.1 0.2
O 0.65 0.15 0.25
Mg 0.6 0.1 0.3
O 0.65 0.15 0.35
Mg 0.6 0.1 0.4
O 0.65 0.15 0.45
Mg 0.6 0.1 0.5
O 0.65 0.15 0.55
Mg 0.6 0.1 0.6
O 0.65 0.15 0.65
Mg 0.6 0.1 0.7
O 0.65 0.15 0.75
Mg 0.6 0.1 0.8
O 0.65 0.15 0.85
Mg 0.6 0.1 0.9
O 0.65 0.15 0.95
Mg 0.6 0.2 0.0
O 0.65 0.25 0.05
Mg 0.6 0.2 0.1
O 0.65 0.25 0.15
Mg 0.6 0.2 0.2
O 0.65 0.25 0.25
Mg 0.6 0.2 0.3
O 0.65 0.25 0.35
Mg 0.6 0.2 0.4
O 0.65 0.25 0.45
Mg 0.6 0.2 0.5
O 0.65 0.25 0.55
Mg 0.6 0.2 0.6
O 0.65 0.25 0.65
Mg 0.6 0.2 0.7
O 0.65 0.25 0.75
Mg 0.6 0.2 0.8
O 0.65 0.25 0.85
Mg 0.6 0.2 0.9
O 0.65 0.25 0.95
Mg 0.6 0.3 0.0
O 0.65 0.35 0.05
Mg 0.6 0.3 0.1
O 0.65 0.35 0.15
Mg 0.6 0.3 0.2
O 0.65 0.35 0.25
Mg 0.6 0.3 0.3
O 0.65 0.35 0.35
Mg 0.6 0.3 0.4
O 0.65 0.35 0.45
Mg 0.6 0.3 0.5
O 0.65 0.35 0.55
Mg 0.6 0.3 0.6
O 0.65 0.35 0.65
Mg 0.6 0.3 0.7
O 0.65 0.35 0.75
Mg 0.6 0.3 0.8
O 0.65 0.35 0.85
Mg 0.6 0.3 0.9
O 0.65 0.35 0.95
Mg 0.6 0.4 0.0
O 0.65 0.45 0.05
Mg 0.6 0.4 0.1
O 0.65 0.45 0.15
Mg 0.6 0.4 0.2
O 0.65 0.45 0.25
Mg 0.6 0.4 0.3
O 0.65 0.45 0.35
Mg 0.6 0.4 0.4
O 0.65 0.45 0.45
Mg 0.6 0.4 0.5
O 0.65 0.45 0.55
Mg 0.6 0.4 0.6
O 0.65 0.45 0.65
Mg 0.6 0.4 0.7
O 0.65 0.45 0.75
Mg 0.6 0.4 0.8
O 0.65 0.45 0.85
Mg 0.6 0.4 0.9
O 0.65 0.45 0.95
Mg 0.6 0.5 0.0
O 0.65 0.55 0.05
Mg 0.6 0.5 0.1
O 0.65 0.55 0.15
Mg 0.6 0.5 0.2
O 0.65 0.55 0.25
Mg 0.6 0.5 0.3
O 0.65 0.55 0.35
Mg 0.6 0.5 0.4
O 0.65 0.55 0.45
Mg 0.6 0.5 0.5
O 0.65 0.55 0.55
Mg 0.6 0.5 0.6
O 0.65 0.55 0.65
Mg 0.6 0.5 0.7
O 0.65 0.55 0.75
Mg 0.6 0.5 0.8
O 0.65 0.55 0.85
Mg 0.6 0.5 0.9
O 0.65 0.55 0.95
Mg 0.6 0.6 0.0
O 0.65 0.65 0.05
Mg 0.6 0.6 0.1
O 0.65 0.65 0.15
Mg 0.6 0.6 0.2
O 0.65 0.65 0.25
Mg 0.6 0.6 0.3
O 0.65 0.65 0.35
Mg 0.6 0.6 0.4
O 0.65 0.65 0.45
Mg 0.6 0.6 0.5
O 0.65 0.65 0.55
Mg 0.6 0.6 0.6
O 0.65 0.65 0.65
Mg 0.6 0.6 0.7
O 0.65 0.65 0.75
Mg 0.6 0.6 0.8
O 0.65 0.65 0.85
Mg 0.6 0.6 0.9
O 0.65 0.65 0.95
Mg 0.6 0.7 0.0
O 0.65 0.75 0.05
Mg 0.6 0.7 0.1
O 0.65 0.75 0.15
Mg 0.6 0.7 0.2
O 0.65 0.75 0.25
Mg 0.6 0.7 0.3
O 0.65 0.75 0.35
Mg 0.6 0.7 0.4
O 0.65 0.75 0.45
Mg 0.6 0.7 0.5
O 0.65 0.75 0.55
Mg 0.6 0.7 0.6
O 0.65 0.75 0.65
Mg 0.6 0.7 0.7
O 0.65 0.75 0.75
Mg 0.6 0.7 0.8
O 0.65 0.75 0.85
Mg 0.6 0.7 0.9
O 0.65 0.75 0.95
Mg 0.6 0.8 0.0
O 0.65 0.85 0.05
Mg 0.6 0.8 0.1
O 0.65 0.85 0.15
Mg 0.6 0.8 0.2
O 0.65 0.85 0.25
Mg 0.6 0.8 0.3
O 0.65 0.85 0.35
Mg 0.6 0.8 0.4
O 0.65 0.85 0.45
Mg 0.6 0.8 0.5
O 0.65 0.85 0.55
Mg 0.6 0.8 0.6
O 0.65 0.85 0.65
Mg 0.6 0.8 0.7
O 0.65 0.85 0.75
Mg 0.6 0.8 0.8
O 0.65 0.85 0.85
Mg 0.6 0.8 0.9
O 0.65 0.85 0.95
Mg 0.6 0.9 0.0
O 0.65 0.95 0.05
Mg 0.6 0.9 0.1
O 0.65 0.95 0.15
Mg 0.6 0.9 0.2
O 0.65 0.95 0.25
Mg 0.6 0.9 0.3
O 0.65 0.95 0.35
Mg 0.6 0.9 0.4
O 0.65 0.95 0.45
Mg 0.6 0.9 0.5
O 0.65 0.95 0.55
Mg 0.6 0.9 0.6
O 0.65 0.95 0.65
Mg 0.6 0.9 0.7
O 0.65 0.95 0.75
Mg 0.6 0.9 0.8
O 0.65 0.95 0.85
Mg 0.6 0.9 0.9
O 0.65 0.95 0.95
Mg 0.7 0.0 0.0
O 0.75 0.05 0.05
Mg 0.7 0.0 0.1
O 0.75 0.05 0.15
Mg 0.7 0.0 0.2
O 0.75 0.05 0.25
Mg 0.7 0.0 0.3
O 0.75 0.05 0.35
Mg 0.7 0.0 0.4
O 0.75 0.05 0.45
Mg 0.7 0.0 0.5
O 0.75 0.05 0.55
Mg 0.7 0.0 0.6
O 0.75 0.05 0.65
Mg 0.7 0.0 0.7
O 0.75 0.05 0.75
Mg 0.7 0.0 0.8
O 0.75 0.05 0.85
Mg 0.7 0.0 0.9
O 0.75 0.05 0.95
Mg 0.7 0.1 0.0
O 0.75 0.15 0.05
Mg 0.7 0.1 0.1
O 0.75 0.15 0.15
Mg 0.7 0.1 0.2
O 0.75 0.15 0.25
Mg 0.7 0.1 0.3
O 0.75 0.15 0.35
Mg 0.7 0.1 0.4
O 0.75 0.15 0.45
Mg 0.7 0.1 0.5
O 0.75 0.15 0.55
Mg 0.7 0.1 0.6
O 0.75 0.15 0.65
Mg 0.7 0.1 0.7
O 0.75 0.15 0.75
Mg 0.7 0.1 0.8
O 0.75 0.15 0.85
Mg 0.7 0.1 0.9
O 0.75 0.15 0.95
Mg 0.7 0.2 0.0
O 0.75 0.25 0.05
Mg 0.7 0.2 0.1
O 0.75 0.25 0.15
Mg 0.7 0.2 0.2
O 0.75 0.25 0.25
Mg 0.7 0.2 0.3
O 0.75 0.25 0.35
Mg 0.7 0.2 0.4
O 0.75 0.25 0.45
Mg 0.7 0.2 0.5
O 0.75 0.25 0.55
Mg 0.7 0.2 0.6
O 0.75 0.25 0.65
Mg 0.7 0.2 0.7
O 0.75 0.25 0.75
Mg 0.7 0.2 0.8
O 0.75 0.25 0.85
Mg 0.7 0.2 0.9
O 0.75 0.25 0.95
Mg 0.7 0.3 0.0
O 0.75 0.35 0.05
Mg 0.7 0.3 0.1
O 0.75 0.35 0.15
Mg 0.7 0.3 0.2
O 0.75 0.35 0.25
Mg 0.7 0.3 0.3
O 0.75 0.35 0.35
Mg 0.7 0.3 0.4
O 0.75 0.35 0.45
Mg 0.7 0.3 0.5
O 0.75 0.35 0.55
Mg 0.7 0.3 0.6
O 0.75 0.35 0.65
Mg 0.7 0.3 0.7
O 0.75 0.35 0.75
Mg 0.7 0.3 0.8
O 0.75 0.35 0.85
Mg 0.7 0.3 0.9
O 0.75 0.35 0.95
Mg 0.7 0.4 0.0
O 0.75 0.45 0.05
Mg 0.7 0.4 0.1
O 0.75 0.45 0.15
Mg 0.7 0.4 0.2
O 0.75 0.45 0.25
Mg 0.7 0.4 0.3
O 0.75 0.45 0.35
Mg 0.7 0.4 0.4
O 0.75 0.45 0.45
Mg 0.7 0.4 0.5
O 0.75 0.45 0.55
Mg 0.7 0.4 0.6
O 0.75 0.45 0.65
Mg 0.7 0.4 0.7
O 0.75 0.45 0.75
Mg 0.7 0.4 0.8
O 0.75 0.45 0.85
Mg 0.7 0.4 0.9
O 0.75 0.45 0.95
Mg 0.7 0.5 0.0
O 0.75 0.55 0.05
Mg 0.7 0.5 0.1
O 0.75 0.55 0.15
Mg 0.7 0.5 0.2
O 0.75 0.55 0.25
Mg 0.7 0.5 0.3
O 0.75 0.55 0.35
Mg 0.7 0.5 0.4
O 0.75 0.55 0.45
Mg 0.7 0.5 0.5
O 0.75 0.55 0.55
Mg 0.7 0.5 0.6
O 0.75 0.55 0.65
Mg 0.7 0.5 0.7
O 0.75 0.55 0.75
Mg 0.7 0.5 0.8
O 0.75 0.55 0.85
Mg 0.7 0.5 0.9
O 0.75 0.55 0.95
Mg 0.7 0.6 0.0
O 0.75 0.65 0.05
Mg 0.7 0.6 0.1
O 0.75 0.65 0.15
Mg 0.7 0.6 0.2
O 0.75 0.65 0.25
Mg 0.7 0.6 0.3
O 0.75 0.65 0.35
Mg 0.7 0.6 0.4
O 0.75 0.65 0.45
Mg 0.7 0.6 0.5
O 0.75 0.65 0.55
Mg 0.7 0.6 0.6
O 0.75 0.65 0.65
Mg 0.7 0.6 0.7
O 0.75 0.65 0.75
Mg 0.7 0.6 0.8
O 0.75 0.65 0.85
Mg 0.7 0.6 0.9
O 0.75 0.65 0.95
Mg 0.7 0.7 0.0
O 0.75 0.75 0.05
Mg 0.7 0.7 0.1
O 0.75 0.75 0.15
Mg 0.7 0.7 0.2
O 0.75 0.75 0.25
Mg 0.7 0.7 0.3
O 0.75 0.75 0.35
Mg 0.7 0.7 0.4
O 0.75 0.75 0.45
Mg 0.7 0.7 0.5
O 0.75 0.75 0.55
Mg 0.7 0.7 0.6
O 0.75 0.75 0.65
Mg 0.7 0.7 0.7
O 0.75 0.75 0.75
Mg 0.7 0.7 0.8
O 0.75 0.75 0.85
Mg 0.7 0.7 0.9
O 0.75 0.75 0.95
Mg 0.7 0.8 0.0
O 0.75 0.85 0.05
Mg 0.7 0.8 0.1
O 0.75 0.85 0.15
Mg 0.7 0.8 0.2
O 0.75 0.85 0.25
Mg 0.7 0.8 0.3
O 0.75 0.85 0.35
Mg 0.7 0.8 0.4
O 0.75 0.85 0.45
Mg 0.7 0.8 0.5
O 0.75 0.85 0.55
Mg 0.7 0.8 0.6
O 0.75 0.85 0.65
Mg 0.7 0.8 0.7
O 0.75 0.85 0.75
Mg 0.7 0.8 0.8
O 0.75 0.85 0.85
Mg 0.7 0.8 0.9
O 0.75 0.85 0.95
Mg 0.7 0.9 0.0
O 0.75 0.95 0.05
Mg 0.7 0.9 0.1
O 0.75 0.95 0.15
Mg 0.7 0.9 0.2
O 0.75 0.95 0.25
Mg 0.7 0.9 0.3
O 0.75 0.95 0.35
Mg 0.7 0.9 0.4
O 0.75 0.95 0.45
Mg 0.7 0.9 0.5
O 0.75 0.95 0.55
Mg 0.7 0.9 0.6
O 0.75 0.95 0.65
Mg 0.7 0.9 0.7
O 0.75 0.95 0.75
Mg 0.7 0.9 0.8
O 0.75 0.95 0.85
Mg 0.7 0.9 0.9
O 0.75 0.95 0.95
Mg 0.8 0.0 0.0
O 0.85 0.05 0.05
Mg 0.8 0.0 0.1
O 0.85 0.05 0.15
Mg 0.8 0.0 0.2
O 0.85 0.05 0.25
Mg 0.8 0.0 0.3
O 0.85 0.05 0.35
Mg 0.8 0.0 0.4
O 0.85 0.05 0.45
Mg 0.8 0.0 0.5
O 0.85 0.05 0.55
Mg 0.8 0.0 0.6
O 0.85 0.05 0.65
Mg 0.8 0.0 0.7
O 0.85 0.05 0.75
Mg 0.8 0.0 0.8
O 0.85 0.05 0.85
Mg 0.8 0.0 0.9
O 0.85 0.05 0.95
Mg 0.8 0.1 0.0
O 0.85 0.15 0.05
Mg 0.8 0.1 0.1
O 0.85 0.15 0.15
Mg 0.8 0.1 0.2
O 0.85 0.15 0.25
Mg 0.8 0.1 0.3
O 0.85 0.15 0.35
Mg 0.8 0.1 0.4
O 0.85 0.15 0.45
Mg 0.8 0.1 0.5
O 0.85 0.15 0.55
Mg 0.8 0.1 0.6
O 0.85 0.15 0.65
Mg 0.8 0.1 0.7
O 0.85 0.15 0.75
Mg 0.8 0.1 0.8
O 0.85 0.15 0.85
Mg 0.8 0.1 0.9
O 0.85 0.15 0.95
Mg 0.8 0.2 0.0
O 0.85 0.25 0.05
Mg 0.8 0.2 0.1
O 0.85 0.25 0.15
Mg 0.8 0.2 0.2
O 0.85 0.25 0.25
Mg 0.8 0.2 0.3
O 0.85 0.25 0.35
Mg 0.8 0.2 0.4
O 0.85 0.25 0.45
Mg 0.8 0.2 0.5
O 0.85 0.25 0.55
Mg 0.8 0.2 0.6
O 0.85 0.25 0.65
Mg 0.8 0.2 0.7
O 0.85 0.25 0.75
Mg 0.8 0.2 0.8
O 0.85 0.25 0.85
Mg 0.8 0.2 0.9
O 0.85 0.25 0.95
Mg 0.8 0.3 0.0
O 0.85 0.35 0.05
Mg 0.8 0.3 0.1
O 0.85 0.35 0.15
Mg 0.8 0.3 0.2
O 0.85 0.35 0.25
Mg 0.8 0.3 0.3
O 0.85 0.35 0.35
Mg 0.8 0.3 0.4
O 0.85 0.35 0.45
Mg 0.8 0.3 0.5
O 0.85 0.35 0.55
Mg 0.8 0.3 0.6
O 0.85 0.35 0.65
Mg 0.8 0.3 0.7
O 0.85 0.35 0.75
Mg 0.8 0.3 0.8
O 0.85 0.35 0.85
Mg 0.8 0.3 0.9
O 0.85 0.35 0.95
Mg 0.8 0.4 0.0
O 0.85 0.45 0.05
Mg 0.8 0.4 0.1
O 0.85 0.45 0.15
Mg 0.8 0.4 0.2
O 0.85 0.45 0.25
Mg 0.8 0.4 0.3
O 0.85 0.45 0.35
Mg 0.8 0.4 0.4
O 0.85 0.45 0.45
Mg 0.8 0.4 0.5
O 0.85 0.45 0.55
Mg 0.8 0.4 0.6
O 0.85 0.45 0.65
Mg 0.8 0.4 0.7
O 0.85 0.45 0.75
Mg 0.8 0.4 0.8
O 0.85 0.45 0.85
Mg 0.8 0.4 0.9
O 0.85 0.45 0.95
Mg 0.8 0.5 0.0
O 0.85 0.55 0.05
Mg 0.8 0.5 0.1
O 0.85 0.55 0.15
Mg 0.8 0.5 0.2
O 0.85 0.55 0.25
Mg 0.8 0.5 0.3
O 0.85 0.55 0.35
Mg 0.8 0.5 0.4
O 0.85 0.55 0.45
Mg 0.8 0.5 0.5
O 0.85 0.55 0.55
Mg 0.8 0.5 0.6
O 0.85 0.55 0.65
Mg 0.8 0.5 0.7
O 0.85 0.55 0.75
Mg 0.8 0.5 0.8
O 0.85 0.55 0.85
Mg 0.8 0.5 0.9
O 0.85 0.55 0.95
Mg 0.8 0.6 0.0
O 0.85 0.65 0.05
Mg 0.8 0.6 0.1
O 0.85 0.65 0.15
Mg 0.8 0.6 0.2
O 0.85 0.65 0.25
Mg 0.8 0.6 0.3
O 0.85 0.65 0.35
Mg 0.8 0.6 0.4
O 0.85 0.65 0.45
Mg 0.8 0.6 0.5
O 0.85 0.65 0.55
Mg 0.8 0.6 0.6
O 0.85 0.65 0.65
Mg 0.8 0.6 0.7
O 0.85 0.65 0.75
Mg 0.8 0.6 0.8
O 0.85 0.65 0.85
Mg 0.8 0.6 0.9
O 0.85 0.65 0.95
Mg 0.8 0.7 0.0
O 0.85 0.75 0.05
Mg 0.8 0.7 0.1
O 0.85 0.75 0.15
Mg 0.8 0.7 0.2
O 0.85 0.75 0.25
Mg 0.8 0.7 0.3
O 0.85 0.75 0.35
Mg 0.8 0.7 0.4
O 0.85 0.75 0.45
Mg 0.8 0.7 0.5
O 0.85 0.75 0.55
Mg 0.8 0.7 0.6
O 0.85 0.75 0.65
Mg 0.8 0.7 0.7
O 0.85 0.75 0.75
Mg 0.8 0.7 0.8
O 0.85 0.75 0.85
Mg 0.8 0.7 0.9
O 0.85 0.75 0.95
Mg 0.8 0.8 0.0
O 0.85 0.85 0.05
Mg 0.8 0.8 0.1
O 0.85 0.85 0.15
Mg 0.8 0.8 0.2
O 0.85 0.85 0.25
Mg 0.8 0.8 0.3
O 0.85 0.85 0.35
Mg 0.8 0.8 0.4
O 0.85 0.85 0.45
Mg 0.8 0.8 0.5
O 0.85 0.85 0.55
Mg 0.8 0.8 0.6
O 0.85 0.85 0.65
Mg 0.8 0.8 0.7
O 0.85 0.85 0.75
Mg 0.8 0.8 0.8
O 0.85 0.85 0.85
Mg 0.8 0.8 0.9
O 0.85 0.85 0.95
Mg 0.8 0.9 0.0
O 0.85 0.95 0.05
Mg 0.8 0.9 0.1
O 0.85 0.95 0.15
Mg 0.8 0.9 0.2
O 0.85 0.95 0.25
Mg 0.8 0.9 0.3
O 0.85 0.95 0.35
Mg 0.8 0.9 0.4
O 0.85 0.95 0.45
Mg 0.8 0.9 0.5
O 0.85 0.95 0.55
Mg 0.8 0.9 0.6
O 0.85 0.95 0.65
Mg 0.8 0.9 0.7
O 0.85 0.95 0.75
Mg 0.8 0.9 0.8
O 0.85 0.95 0.85
Mg 0.8 0.9 0.9
O 0.85 0.95 0.95
Mg 0.9 0.0 0.0
O 0.95 0.05 0.05
Mg 0.9 0.0 0.1
O 0.95 0.05 0.15
Mg 0.9 0.0 0.2
O 0.95 0.05 0.25
Mg 0.9 0.0 0.3
O 0.95 0.05 0.35
Mg 0.9 0.0 0.4
O 0.95 0.05 0.45
Mg 0.9 0.0 0.5
O 0.95 0.05 0.55
Mg 0.9 0.0 0.6
O 0.95 0.05 0.65
Mg 0.9 0.0 0.7
O 0.95 0.05 0.75
Mg 0.9 0.0 0.8
O 0.95 0.05 0.85
Mg 0.9 0.0 0.9
O 0.95 0.05 0.95
Mg 0.9 0.1 0.0
O 0.95 0.15 0.05
Mg 0.9 0.1 0.1
O 0.95 0.15 0.15
Mg 0.9 0.1 0.2
O 0.95 0.15 0.25
Mg 0.9 0.1 0.3
O 0.95 0.15 0.35
Mg 0.9 0.1 0.4
O 0.95 0.15 0.45
Mg 0.9 0.1 0.5
O 0.95 0.15 0.55
Mg 0.9 0.1 0.6
O 0.95 0.15 0.65