&control
prefix = 'titania'
calculation = 'scf'
restart_mode = 'from_scratch'
wf_collect = .false.
disk_io = 'none'
tstress = .false.
tprnfor = .false.
outdir = './'
wfcdir = './'
pseudo_dir = './'
/
&system
ibrav = 0
celldm(1) = 8.7671
nat = 162
ntyp = 2
nbnd = 648
ecutwfc = 120
/
&electrons
startingwfc='atomic'
electron_maxstep = 1
conv_thr = 1.0d-4
mixing_mode = 'plain'
mixing_beta = 0.7
mixing_ndim = 8
diagonalization = 'david'
diago_david_ndim = 4
diago_full_acc = .false.
/
CELL_PARAMETERS
3.0 0.0 0.0
0.0 3.0 0.0
0.0 0.0 1.915764
ATOMIC_SPECIES
Ti 47.867 Ti.pbe.nml
O 15.9994 O.pbe.nml
ATOMIC_POSITIONS crystal
Ti 0.0 0.0 0.0
Ti 0.166666666667 0.166666666667 0.166666666667
O 0.1016959 0.1016959 0.0
O -0.1016959 -0.1016959 0.0
O 0.268362566667 0.0649707666667 0.166666666667
O 0.0649707666667 0.268362566667 0.166666666667
Ti 0.0 0.0 0.333333333333
Ti 0.166666666667 0.166666666667 0.5
O 0.1016959 0.1016959 0.333333333333
O -0.1016959 -0.1016959 0.333333333333
O 0.268362566667 0.0649707666667 0.5
O 0.0649707666667 0.268362566667 0.5
Ti 0.0 0.0 0.666666666667
Ti 0.166666666667 0.166666666667 0.833333333333
O 0.1016959 0.1016959 0.666666666667
O -0.1016959 -0.1016959 0.666666666667
O 0.268362566667 0.0649707666667 0.833333333333
O 0.0649707666667 0.268362566667 0.833333333333
Ti 0.0 0.333333333333 0.0
Ti 0.166666666667 0.5 0.166666666667
O 0.1016959 0.435029233333 0.0
O -0.1016959 0.231637433333 0.0
O 0.268362566667 0.3983041 0.166666666667
O 0.0649707666667 0.6016959 0.166666666667
Ti 0.0 0.333333333333 0.333333333333
Ti 0.166666666667 0.5 0.5
O 0.1016959 0.435029233333 0.333333333333
O -0.1016959 0.231637433333 0.333333333333
O 0.268362566667 0.3983041 0.5
O 0.0649707666667 0.6016959 0.5
Ti 0.0 0.333333333333 0.666666666667
Ti 0.166666666667 0.5 0.833333333333
O 0.1016959 0.435029233333 0.666666666667
O -0.1016959 0.231637433333 0.666666666667
O 0.268362566667 0.3983041 0.833333333333
O 0.0649707666667 0.6016959 0.833333333333
Ti 0.0 0.666666666667 0.0
Ti 0.166666666667 0.833333333333 0.166666666667
O 0.1016959 0.768362566667 0.0
O -0.1016959 0.564970766667 0.0
O 0.268362566667 0.731637433333 0.166666666667
O 0.0649707666667 0.935029233333 0.166666666667
Ti 0.0 0.666666666667 0.333333333333
Ti 0.166666666667 0.833333333333 0.5
O 0.1016959 0.768362566667 0.333333333333
O -0.1016959 0.564970766667 0.333333333333
O 0.268362566667 0.731637433333 0.5
O 0.0649707666667 0.935029233333 0.5
Ti 0.0 0.666666666667 0.666666666667
Ti 0.166666666667 0.833333333333 0.833333333333
O 0.1016959 0.768362566667 0.666666666667
O -0.1016959 0.564970766667 0.666666666667
O 0.268362566667 0.731637433333 0.833333333333
O 0.0649707666667 0.935029233333 0.833333333333
Ti 0.333333333333 0.0 0.0
Ti 0.5 0.166666666667 0.166666666667
O 0.435029233333 0.1016959 0.0
O 0.231637433333 -0.1016959 0.0
O 0.6016959 0.0649707666667 0.166666666667
O 0.3983041 0.268362566667 0.166666666667
Ti 0.333333333333 0.0 0.333333333333
Ti 0.5 0.166666666667 0.5
O 0.435029233333 0.1016959 0.333333333333
O 0.231637433333 -0.1016959 0.333333333333
O 0.6016959 0.0649707666667 0.5
O 0.3983041 0.268362566667 0.5
Ti 0.333333333333 0.0 0.666666666667
Ti 0.5 0.166666666667 0.833333333333
O 0.435029233333 0.1016959 0.666666666667
O 0.231637433333 -0.1016959 0.666666666667
O 0.6016959 0.0649707666667 0.833333333333
O 0.3983041 0.268362566667 0.833333333333
Ti 0.333333333333 0.333333333333 0.0
Ti 0.5 0.5 0.166666666667
O 0.435029233333 0.435029233333 0.0
O 0.231637433333 0.231637433333 0.0
O 0.6016959 0.3983041 0.166666666667
O 0.3983041 0.6016959 0.166666666667
Ti 0.333333333333 0.333333333333 0.333333333333
Ti 0.5 0.5 0.5
O 0.435029233333 0.435029233333 0.333333333333
O 0.231637433333 0.231637433333 0.333333333333
O 0.6016959 0.3983041 0.5
O 0.3983041 0.6016959 0.5
Ti 0.333333333333 0.333333333333 0.666666666667
Ti 0.5 0.5 0.833333333333
O 0.435029233333 0.435029233333 0.666666666667
O 0.231637433333 0.231637433333 0.666666666667
O 0.6016959 0.3983041 0.833333333333
O 0.3983041 0.6016959 0.833333333333
Ti 0.333333333333 0.666666666667 0.0
Ti 0.5 0.833333333333 0.166666666667
O 0.435029233333 0.768362566667 0.0
O 0.231637433333 0.564970766667 0.0
O 0.6016959 0.731637433333 0.166666666667
O 0.3983041 0.935029233333 0.166666666667
Ti 0.333333333333 0.666666666667 0.333333333333
Ti 0.5 0.833333333333 0.5
O 0.435029233333 0.768362566667 0.333333333333
O 0.231637433333 0.564970766667 0.333333333333
O 0.6016959 0.731637433333 0.5
O 0.3983041 0.935029233333 0.5
Ti 0.333333333333 0.666666666667 0.666666666667
Ti 0.5 0.833333333333 0.833333333333
O 0.435029233333 0.768362566667 0.666666666667
O 0.231637433333 0.564970766667 0.666666666667
O 0.6016959 0.731637433333 0.833333333333
O 0.3983041 0.935029233333 0.833333333333
Ti 0.666666666667 0.0 0.0
Ti 0.833333333333 0.166666666667 0.166666666667
O 0.768362566667 0.1016959 0.0
O 0.564970766667 -0.1016959 0.0
O 0.935029233333 0.0649707666667 0.166666666667
O 0.731637433333 0.268362566667 0.166666666667
Ti 0.666666666667 0.0 0.333333333333
Ti 0.833333333333 0.166666666667 0.5
O 0.768362566667 0.1016959 0.333333333333
O 0.564970766667 -0.1016959 0.333333333333
O 0.935029233333 0.0649707666667 0.5
O 0.731637433333 0.268362566667 0.5
Ti 0.666666666667 0.0 0.666666666667
Ti 0.833333333333 0.166666666667 0.833333333333
O 0.768362566667 0.1016959 0.666666666667
O 0.564970766667 -0.1016959 0.666666666667
O 0.935029233333 0.0649707666667 0.833333333333
O 0.731637433333 0.268362566667 0.833333333333
Ti 0.666666666667 0.333333333333 0.0
Ti 0.833333333333 0.5 0.166666666667
O 0.768362566667 0.435029233333 0.0
O 0.564970766667 0.231637433333 0.0
O 0.935029233333 0.3983041 0.166666666667
O 0.731637433333 0.6016959 0.166666666667
Ti 0.666666666667 0.333333333333 0.333333333333
Ti 0.833333333333 0.5 0.5
O 0.768362566667 0.435029233333 0.333333333333
O 0.564970766667 0.231637433333 0.333333333333
O 0.935029233333 0.3983041 0.5
O 0.731637433333 0.6016959 0.5
Ti 0.666666666667 0.333333333333 0.666666666667
Ti 0.833333333333 0.5 0.833333333333
O 0.768362566667 0.435029233333 0.666666666667
O 0.564970766667 0.231637433333 0.666666666667
O 0.935029233333 0.3983041 0.833333333333
O 0.731637433333 0.6016959 0.833333333333
Ti 0.666666666667 0.666666666667 0.0
Ti 0.833333333333 0.833333333333 0.166666666667
O 0.768362566667 0.768362566667 0.0
O 0.564970766667 0.564970766667 0.0
O 0.935029233333 0.731637433333 0.166666666667
O 0.731637433333 0.935029233333 0.166666666667
Ti 0.666666666667 0.666666666667 0.333333333333
Ti 0.833333333333 0.833333333333 0.5
O 0.768362566667 0.768362566667 0.333333333333
O 0.564970766667 0.564970766667 0.333333333333
O 0.935029233333 0.731637433333 0.5
O 0.731637433333 0.935029233333 0.5
Ti 0.666666666667 0.666666666667 0.666666666667
Ti 0.833333333333 0.833333333333 0.833333333333
O 0.768362566667 0.768362566667 0.666666666667
O 0.564970766667 0.564970766667 0.666666666667
O 0.935029233333 0.731637433333 0.833333333333
O 0.731637433333 0.935029233333 0.833333333333
K_POINTS automatic
1 1 1 1 1 1
