&control
prefix = 'silicon'
calculation = 'scf'
restart_mode = 'from_scratch'
wf_collect = .false.
disk_io = 'none'
tstress = .true.
tprnfor = .true.
outdir = './'
wfcdir = './'
pseudo_dir = './'
/
&system
ibrav = 0
celldm(1) = 10.2612
nat = 54
ntyp = 1
nbnd = 108
ecutwfc = 30
/
&electrons
electron_maxstep = 100
conv_thr = 1.0d-10
mixing_mode = 'plain'
mixing_beta = 0.7
mixing_ndim = 8
diagonalization = 'david'
diago_david_ndim = 4
diago_full_acc = .true.
/
CELL_PARAMETERS
0.0 1.5 1.5
1.5 0.0 1.5
1.5 1.5 0.0
ATOMIC_SPECIES
Si  28.086  Si.lda.UPF
ATOMIC_POSITIONS crystal
Si 0.0 0.0 0.0
Si 0.0833333333333 0.0833333333333 0.0833333333333
Si 0.0 0.0 0.333333333333
Si 0.0833333333333 0.0833333333333 0.416666666667
Si 0.0 0.0 0.666666666667
Si 0.0833333333333 0.0833333333333 0.75
Si 0.0 0.333333333333 0.0
Si 0.0833333333333 0.416666666667 0.0833333333333
Si 0.0 0.333333333333 0.333333333333
Si 0.0833333333333 0.416666666667 0.416666666667
Si 0.0 0.333333333333 0.666666666667
Si 0.0833333333333 0.416666666667 0.75
Si 0.0 0.666666666667 0.0
Si 0.0833333333333 0.75 0.0833333333333
Si 0.0 0.666666666667 0.333333333333
Si 0.0833333333333 0.75 0.416666666667
Si 0.0 0.666666666667 0.666666666667
Si 0.0833333333333 0.75 0.75
Si 0.333333333333 0.0 0.0
Si 0.416666666667 0.0833333333333 0.0833333333333
Si 0.333333333333 0.0 0.333333333333
Si 0.416666666667 0.0833333333333 0.416666666667
Si 0.333333333333 0.0 0.666666666667
Si 0.416666666667 0.0833333333333 0.75
Si 0.333333333333 0.333333333333 0.0
Si 0.416666666667 0.416666666667 0.0833333333333
Si 0.333333333333 0.333333333333 0.333333333333
Si 0.416666666667 0.416666666667 0.416666666667
Si 0.333333333333 0.333333333333 0.666666666667
Si 0.416666666667 0.416666666667 0.75
Si 0.333333333333 0.666666666667 0.0
Si 0.416666666667 0.75 0.0833333333333
Si 0.333333333333 0.666666666667 0.333333333333
Si 0.416666666667 0.75 0.416666666667
Si 0.333333333333 0.666666666667 0.666666666667
Si 0.416666666667 0.75 0.75
Si 0.666666666667 0.0 0.0
Si 0.75 0.0833333333333 0.0833333333333
Si 0.666666666667 0.0 0.333333333333
Si 0.75 0.0833333333333 0.416666666667
Si 0.666666666667 0.0 0.666666666667
Si 0.75 0.0833333333333 0.75
Si 0.666666666667 0.333333333333 0.0
Si 0.75 0.416666666667 0.0833333333333
Si 0.666666666667 0.333333333333 0.333333333333
Si 0.75 0.416666666667 0.416666666667
Si 0.666666666667 0.333333333333 0.666666666667
Si 0.75 0.416666666667 0.75
Si 0.666666666667 0.666666666667 0.0
Si 0.75 0.75 0.0833333333333
Si 0.666666666667 0.666666666667 0.333333333333
Si 0.75 0.75 0.416666666667
Si 0.666666666667 0.666666666667 0.666666666667
Si 0.75 0.75 0.75
K_POINTS automatic
1 1 1 1 1 1
