&control
prefix = 'titania'
calculation = 'scf'
restart_mode = 'from_scratch'
wf_collect = .false.
disk_io = 'none'
tstress = .true.
tprnfor = .true.
outdir = './'
wfcdir = './'
pseudo_dir = './'
/
&system
ibrav = 0
celldm(1) = 8.7671
nat = 48
ntyp = 2
nbnd = 192
ecutwfc = 100
/
&electrons
electron_maxstep = 100
conv_thr = 1.0d-10
mixing_mode = 'plain'
mixing_beta = 0.7
mixing_ndim = 8
diagonalization = 'david'
diago_david_ndim = 4
diago_full_acc = .true.
/
CELL_PARAMETERS
2.0 0.0 0.0
0.0 2.0 0.0
0.0 0.0 1.277176
ATOMIC_SPECIES
Ti 47.867 Ti.pbe.nml
O 15.9994 O.pbe.nml
ATOMIC_POSITIONS crystal
Ti 0.0 0.0 0.0
Ti 0.25 0.25 0.25
O 0.15254385 0.15254385 0.0
O -0.15254385 -0.15254385 0.0
O 0.40254385 0.09745615 0.25
O 0.09745615 0.40254385 0.25
Ti 0.0 0.0 0.5
Ti 0.25 0.25 0.75
O 0.15254385 0.15254385 0.5
O -0.15254385 -0.15254385 0.5
O 0.40254385 0.09745615 0.75
O 0.09745615 0.40254385 0.75
Ti 0.0 0.5 0.0
Ti 0.25 0.75 0.25
O 0.15254385 0.65254385 0.0
O -0.15254385 0.34745615 0.0
O 0.40254385 0.59745615 0.25
O 0.09745615 0.90254385 0.25
Ti 0.0 0.5 0.5
Ti 0.25 0.75 0.75
O 0.15254385 0.65254385 0.5
O -0.15254385 0.34745615 0.5
O 0.40254385 0.59745615 0.75
O 0.09745615 0.90254385 0.75
Ti 0.5 0.0 0.0
Ti 0.75 0.25 0.25
O 0.65254385 0.15254385 0.0
O 0.34745615 -0.15254385 0.0
O 0.90254385 0.09745615 0.25
O 0.59745615 0.40254385 0.25
Ti 0.5 0.0 0.5
Ti 0.75 0.25 0.75
O 0.65254385 0.15254385 0.5
O 0.34745615 -0.15254385 0.5
O 0.90254385 0.09745615 0.75
O 0.59745615 0.40254385 0.75
Ti 0.5 0.5 0.0
Ti 0.75 0.75 0.25
O 0.65254385 0.65254385 0.0
O 0.34745615 0.34745615 0.0
O 0.90254385 0.59745615 0.25
O 0.59745615 0.90254385 0.25
Ti 0.5 0.5 0.5
Ti 0.75 0.75 0.75
O 0.65254385 0.65254385 0.5
O 0.34745615 0.34745615 0.5
O 0.90254385 0.59745615 0.75
O 0.59745615 0.90254385 0.75
K_POINTS automatic
1 1 1 1 1 1
